p cnf 11 113-2 -3 0
-2 -3 -4 0
-2 3 4 0
2 -3 -4 0
-3 -2 -4 5 0
-3 -2 4 -5 0
-3 2 -4 -5 0
-3 2 4 5 0
3 -2 -4 5 0
3 -2 4 -5 0
3 2 -4 -5 0
-4 -2 -3 -5 -6 0
-4 -2 -3 5 6 0
-4 -2 3 -5 6 0
-4 -2 3 5 -6 0
-4 2 -3 -5 6 0
-4 2 -3 5 -6 0
-4 2 3 -5 -6 0
-4 2 3 5 6 0
4 -2 -3 -5 -6 0
4 -2 -3 5 6 0
4 -2 3 -5 6 0
4 -2 3 5 -6 0
4 2 -3 -5 6 0
4 2 -3 5 -6 0
4 2 3 -5 -6 0
-5 -3 -4 -6 -7 0
-5 -3 -4 6 7 0
-5 -3 4 -6 7 0
-5 -3 4 6 -7 0
-5 3 -4 -6 7 0
-5 3 -4 6 -7 0
-5 3 4 -6 -7 0
-5 3 4 6 7 0
5 -3 -4 -6 -7 0
5 -3 -4 6 7 0
5 -3 4 -6 7 0
5 -3 4 6 -7 0
5 3 -4 -6 7 0
5 3 -4 6 -7 0
5 3 4 -6 -7 0
-6 -4 -5 -7 -8 0
-6 -4 -5 7 8 0
-6 -4 5 -7 8 0
-6 -4 5 7 -8 0
-6 4 -5 -7 8 0
-6 4 -5 7 -8 0
-6 4 5 -7 -8 0
-6 4 5 7 8 0
6 -4 -5 -7 -8 0
6 -4 -5 7 8 0
6 -4 5 -7 8 0
6 -4 5 7 -8 0
6 4 -5 -7 8 0
6 4 -5 7 -8 0
6 4 5 -7 -8 0
-7 -5 -6 -8 -9 0
-7 -5 -6 8 9 0
-7 -5 6 -8 9 0
-7 -5 6 8 -9 0
-7 5 -6 -8 9 0
-7 5 -6 8 -9 0
-7 5 6 -8 -9 0
-7 5 6 8 9 0
7 -5 -6 -8 -9 0
7 -5 -6 8 9 0
7 -5 6 -8 9 0
7 -5 6 8 -9 0
7 5 -6 -8 9 0
7 5 -6 8 -9 0
7 5 6 -8 -9 0
-8 -6 -7 -9 -10 0
-8 -6 -7 9 10 0
-8 -6 7 -9 10 0
-8 -6 7 9 -10 0
-8 6 -7 -9 10 0
-8 6 -7 9 -10 0
-8 6 7 -9 -10 0
-8 6 7 9 10 0
8 -6 -7 -9 -10 0
8 -6 -7 9 10 0
8 -6 7 -9 10 0
8 -6 7 9 -10 0
8 6 -7 -9 10 0
8 6 -7 9 -10 0
8 6 7 -9 -10 0
-9 -7 -8 -10 -11 0
-9 -7 -8 10 11 0
-9 -7 8 -10 11 0
-9 -7 8 10 -11 0
-9 7 -8 -10 11 0
-9 7 -8 10 -11 0
-9 7 8 -10 -11 0
-9 7 8 10 11 0
9 -7 -8 -10 -11 0
9 -7 -8 10 11 0
9 -7 8 -10 11 0
9 -7 8 10 -11 0
9 7 -8 -10 11 0
9 7 -8 10 -11 0
9 7 8 -10 -11 0
-10 -8 -9 11 0
-10 -8 9 -11 0
-10 8 -9 -11 0
-10 8 9 11 0
10 -8 -9 11 0
10 -8 9 -11 0
10 8 -9 -11 0
-11 -9 -10 0
-11 9 10 0
11 -9 -10 0
-10 -11 0
2 3 4 5 6 7 8 9 10 11 0
